(set-info :smt-lib-version 2.6)
(set-logic QF_BV)
(set-info :source |
Generated by: Maximilian A. Zinkus
Generated on: 2022-10-12
Generator: MCMPC
Application: Model counting optimization for MPC functionalities
Target solver: CryptoMinisat, Z3
|)
(set-info :license "https://creativecommons.org/licenses/by/4.0/")
(set-info :category "industrial")
(set-info :status unknown)
(declare-fun chosen_0 () Bool)
(declare-fun chosen () (_ BitVec 36))
(declare-fun chosen_1 () Bool)
(declare-fun chosen_2 () Bool)
(declare-fun chosen_3 () Bool)
(declare-fun chosen_4 () Bool)
(declare-fun chosen_5 () Bool)
(declare-fun chosen_6 () Bool)
(declare-fun chosen_7 () Bool)
(declare-fun chosen_8 () Bool)
(declare-fun chosen_9 () Bool)
(declare-fun chosen_10 () Bool)
(declare-fun chosen_11 () Bool)
(declare-fun chosen_12 () Bool)
(declare-fun chosen_13 () Bool)
(declare-fun chosen_14 () Bool)
(declare-fun chosen_15 () Bool)
(declare-fun chosen_16 () Bool)
(declare-fun chosen_17 () Bool)
(declare-fun chosen_18 () Bool)
(declare-fun chosen_19 () Bool)
(declare-fun chosen_20 () Bool)
(declare-fun chosen_21 () Bool)
(declare-fun chosen_22 () Bool)
(declare-fun chosen_23 () Bool)
(declare-fun chosen_24 () Bool)
(declare-fun chosen_25 () Bool)
(declare-fun chosen_26 () Bool)
(declare-fun chosen_27 () Bool)
(declare-fun chosen_28 () Bool)
(declare-fun chosen_29 () Bool)
(declare-fun chosen_30 () Bool)
(declare-fun chosen_31 () Bool)
(declare-fun chosen_32 () Bool)
(declare-fun chosen_33 () Bool)
(declare-fun chosen_34 () Bool)
(declare-fun chosen_35 () Bool)
(declare-fun target_0 () Bool)
(declare-fun target () (_ BitVec 36))
(declare-fun target_1 () Bool)
(declare-fun target_2 () Bool)
(declare-fun target_3 () Bool)
(declare-fun target_4 () Bool)
(declare-fun target_5 () Bool)
(declare-fun target_6 () Bool)
(declare-fun target_7 () Bool)
(declare-fun target_8 () Bool)
(declare-fun target_9 () Bool)
(declare-fun target_10 () Bool)
(declare-fun target_11 () Bool)
(declare-fun target_12 () Bool)
(declare-fun target_13 () Bool)
(declare-fun target_14 () Bool)
(declare-fun target_15 () Bool)
(declare-fun target_16 () Bool)
(declare-fun target_17 () Bool)
(declare-fun target_18 () Bool)
(declare-fun target_19 () Bool)
(declare-fun target_20 () Bool)
(declare-fun target_21 () Bool)
(declare-fun target_22 () Bool)
(declare-fun target_23 () Bool)
(declare-fun target_24 () Bool)
(declare-fun target_25 () Bool)
(declare-fun target_26 () Bool)
(declare-fun target_27 () Bool)
(declare-fun target_28 () Bool)
(declare-fun target_29 () Bool)
(declare-fun target_30 () Bool)
(declare-fun target_31 () Bool)
(declare-fun target_32 () Bool)
(declare-fun target_33 () Bool)
(declare-fun target_34 () Bool)
(declare-fun target_35 () Bool)
(declare-fun target_outcome0_t0 () (_ BitVec 36))
(declare-fun chosen_outcome0 () (_ BitVec 36))
(declare-fun target_outcome1_t0 () (_ BitVec 36))
(declare-fun chosen_outcome1 () (_ BitVec 36))
(declare-fun target_bit_0_0_bool () Bool)
(declare-fun target_bit_0_1_bool () Bool)
(declare-fun target_bit_0_2_bool () Bool)
(declare-fun target_bit_0_3_bool () Bool)
(declare-fun target_bit_0_4_bool () Bool)
(declare-fun target_bit_0_5_bool () Bool)
(declare-fun target_bit_0_6_bool () Bool)
(declare-fun target_bit_0_7_bool () Bool)
(declare-fun target_bit_0_8_bool () Bool)
(declare-fun target_bit_0_9_bool () Bool)
(declare-fun target_bit_0_10_bool () Bool)
(declare-fun target_bit_0_11_bool () Bool)
(declare-fun target_bit_0_12_bool () Bool)
(declare-fun target_bit_0_13_bool () Bool)
(declare-fun target_bit_0_14_bool () Bool)
(declare-fun target_bit_0_15_bool () Bool)
(declare-fun target_bit_0_16_bool () Bool)
(declare-fun target_bit_0_17_bool () Bool)
(declare-fun target_bit_0_18_bool () Bool)
(declare-fun target_bit_1_0_bool () Bool)
(declare-fun target_bit_1_1_bool () Bool)
(declare-fun target_bit_1_2_bool () Bool)
(declare-fun target_bit_1_3_bool () Bool)
(declare-fun target_bit_1_4_bool () Bool)
(declare-fun target_bit_1_5_bool () Bool)
(declare-fun target_bit_1_6_bool () Bool)
(declare-fun target_bit_1_7_bool () Bool)
(declare-fun target_bit_1_8_bool () Bool)
(declare-fun target_bit_1_9_bool () Bool)
(declare-fun target_bit_1_10_bool () Bool)
(declare-fun target_bit_1_11_bool () Bool)
(declare-fun target_bit_1_12_bool () Bool)
(declare-fun target_bit_1_13_bool () Bool)
(declare-fun target_bit_1_14_bool () Bool)
(declare-fun target_bit_1_15_bool () Bool)
(declare-fun target_bit_1_16_bool () Bool)
(declare-fun target_bit_1_17_bool () Bool)
(declare-fun target_bit_1_18_bool () Bool)
(assert
 (= (= (_ bv1 1) ((_ extract 0 0) chosen)) (= chosen_0 true)))
(assert
 (= (= (_ bv1 1) ((_ extract 1 1) chosen)) (= chosen_1 true)))
(assert
 (= (= (_ bv1 1) ((_ extract 2 2) chosen)) (= chosen_2 true)))
(assert
 (= (= (_ bv1 1) ((_ extract 3 3) chosen)) (= chosen_3 true)))
(assert
 (= (= (_ bv1 1) ((_ extract 4 4) chosen)) (= chosen_4 true)))
(assert
 (= (= (_ bv1 1) ((_ extract 5 5) chosen)) (= chosen_5 true)))
(assert
 (= (= (_ bv1 1) ((_ extract 6 6) chosen)) (= chosen_6 true)))
(assert
 (= (= (_ bv1 1) ((_ extract 7 7) chosen)) (= chosen_7 true)))
(assert
 (= (= (_ bv1 1) ((_ extract 8 8) chosen)) (= chosen_8 true)))
(assert
 (= (= (_ bv1 1) ((_ extract 9 9) chosen)) (= chosen_9 true)))
(assert
 (= (= (_ bv1 1) ((_ extract 10 10) chosen)) (= chosen_10 true)))
(assert
 (= (= (_ bv1 1) ((_ extract 11 11) chosen)) (= chosen_11 true)))
(assert
 (= (= (_ bv1 1) ((_ extract 12 12) chosen)) (= chosen_12 true)))
(assert
 (= (= (_ bv1 1) ((_ extract 13 13) chosen)) (= chosen_13 true)))
(assert
 (= (= (_ bv1 1) ((_ extract 14 14) chosen)) (= chosen_14 true)))
(assert
 (= (= (_ bv1 1) ((_ extract 15 15) chosen)) (= chosen_15 true)))
(assert
 (= (= (_ bv1 1) ((_ extract 16 16) chosen)) (= chosen_16 true)))
(assert
 (= (= (_ bv1 1) ((_ extract 17 17) chosen)) (= chosen_17 true)))
(assert
 (= (= (_ bv1 1) ((_ extract 18 18) chosen)) (= chosen_18 true)))
(assert
 (= (= (_ bv1 1) ((_ extract 19 19) chosen)) (= chosen_19 true)))
(assert
 (= (= (_ bv1 1) ((_ extract 20 20) chosen)) (= chosen_20 true)))
(assert
 (= (= (_ bv1 1) ((_ extract 21 21) chosen)) (= chosen_21 true)))
(assert
 (= (= (_ bv1 1) ((_ extract 22 22) chosen)) (= chosen_22 true)))
(assert
 (= (= (_ bv1 1) ((_ extract 23 23) chosen)) (= chosen_23 true)))
(assert
 (= (= (_ bv1 1) ((_ extract 24 24) chosen)) (= chosen_24 true)))
(assert
 (= (= (_ bv1 1) ((_ extract 25 25) chosen)) (= chosen_25 true)))
(assert
 (= (= (_ bv1 1) ((_ extract 26 26) chosen)) (= chosen_26 true)))
(assert
 (= (= (_ bv1 1) ((_ extract 27 27) chosen)) (= chosen_27 true)))
(assert
 (= (= (_ bv1 1) ((_ extract 28 28) chosen)) (= chosen_28 true)))
(assert
 (= (= (_ bv1 1) ((_ extract 29 29) chosen)) (= chosen_29 true)))
(assert
 (= (= (_ bv1 1) ((_ extract 30 30) chosen)) (= chosen_30 true)))
(assert
 (= (= (_ bv1 1) ((_ extract 31 31) chosen)) (= chosen_31 true)))
(assert
 (= (= (_ bv1 1) ((_ extract 32 32) chosen)) (= chosen_32 true)))
(assert
 (= (= (_ bv1 1) ((_ extract 33 33) chosen)) (= chosen_33 true)))
(assert
 (= (= (_ bv1 1) ((_ extract 34 34) chosen)) (= chosen_34 true)))
(assert
 (= (= (_ bv1 1) ((_ extract 35 35) chosen)) (= chosen_35 true)))
(assert
 (= (= (_ bv1 1) ((_ extract 0 0) target)) (= target_0 true)))
(assert
 (= (= (_ bv1 1) ((_ extract 1 1) target)) (= target_1 true)))
(assert
 (= (= (_ bv1 1) ((_ extract 2 2) target)) (= target_2 true)))
(assert
 (= (= (_ bv1 1) ((_ extract 3 3) target)) (= target_3 true)))
(assert
 (= (= (_ bv1 1) ((_ extract 4 4) target)) (= target_4 true)))
(assert
 (= (= (_ bv1 1) ((_ extract 5 5) target)) (= target_5 true)))
(assert
 (= (= (_ bv1 1) ((_ extract 6 6) target)) (= target_6 true)))
(assert
 (= (= (_ bv1 1) ((_ extract 7 7) target)) (= target_7 true)))
(assert
 (= (= (_ bv1 1) ((_ extract 8 8) target)) (= target_8 true)))
(assert
 (= (= (_ bv1 1) ((_ extract 9 9) target)) (= target_9 true)))
(assert
 (= (= (_ bv1 1) ((_ extract 10 10) target)) (= target_10 true)))
(assert
 (= (= (_ bv1 1) ((_ extract 11 11) target)) (= target_11 true)))
(assert
 (= (= (_ bv1 1) ((_ extract 12 12) target)) (= target_12 true)))
(assert
 (= (= (_ bv1 1) ((_ extract 13 13) target)) (= target_13 true)))
(assert
 (= (= (_ bv1 1) ((_ extract 14 14) target)) (= target_14 true)))
(assert
 (= (= (_ bv1 1) ((_ extract 15 15) target)) (= target_15 true)))
(assert
 (= (= (_ bv1 1) ((_ extract 16 16) target)) (= target_16 true)))
(assert
 (= (= (_ bv1 1) ((_ extract 17 17) target)) (= target_17 true)))
(assert
 (= (= (_ bv1 1) ((_ extract 18 18) target)) (= target_18 true)))
(assert
 (= (= (_ bv1 1) ((_ extract 19 19) target)) (= target_19 true)))
(assert
 (= (= (_ bv1 1) ((_ extract 20 20) target)) (= target_20 true)))
(assert
 (= (= (_ bv1 1) ((_ extract 21 21) target)) (= target_21 true)))
(assert
 (= (= (_ bv1 1) ((_ extract 22 22) target)) (= target_22 true)))
(assert
 (= (= (_ bv1 1) ((_ extract 23 23) target)) (= target_23 true)))
(assert
 (= (= (_ bv1 1) ((_ extract 24 24) target)) (= target_24 true)))
(assert
 (= (= (_ bv1 1) ((_ extract 25 25) target)) (= target_25 true)))
(assert
 (= (= (_ bv1 1) ((_ extract 26 26) target)) (= target_26 true)))
(assert
 (= (= (_ bv1 1) ((_ extract 27 27) target)) (= target_27 true)))
(assert
 (= (= (_ bv1 1) ((_ extract 28 28) target)) (= target_28 true)))
(assert
 (= (= (_ bv1 1) ((_ extract 29 29) target)) (= target_29 true)))
(assert
 (= (= (_ bv1 1) ((_ extract 30 30) target)) (= target_30 true)))
(assert
 (= (= (_ bv1 1) ((_ extract 31 31) target)) (= target_31 true)))
(assert
 (= (= (_ bv1 1) ((_ extract 32 32) target)) (= target_32 true)))
(assert
 (= (= (_ bv1 1) ((_ extract 33 33) target)) (= target_33 true)))
(assert
 (= (= (_ bv1 1) ((_ extract 34 34) target)) (= target_34 true)))
(assert
 (= (= (_ bv1 1) ((_ extract 35 35) target)) (= target_35 true)))
(assert
 (let (($x382 (not (bvuge (bvmul chosen_outcome0 (_ bv140001 36)) (bvadd (_ bv12000000000 36) target_outcome0_t0)))))
 (= (_ bv0 1) (ite (bvuge chosen_outcome0 (_ bv490849 36)) (_ bv0 1) (ite $x382 (_ bv1 1) (_ bv0 1))))))
(assert
 (let (($x445 (not (bvuge (bvmul chosen_outcome1 (_ bv140001 36)) (bvadd (_ bv12000000000 36) target_outcome1_t0)))))
 (= (_ bv1 1) (ite (bvuge chosen_outcome1 (_ bv490849 36)) (_ bv0 1) (ite $x445 (_ bv1 1) (_ bv0 1))))))
(assert
 (let (($x2827 (bvuge (_ bv459011 36) (_ bv490849 36))))
 (let ((?x3876 (ite $x2827 (_ bv0 1) (ite (not (bvuge (bvmul (_ bv459011 36) (_ bv140001 36)) (bvadd (_ bv12000000000 36) target))) (_ bv1 1) (_ bv0 1)))))
 (= (_ bv0 1) ?x3876))))
(assert
 (let ((?x4357 (ite (not (bvuge (bvmul (_ bv459011 36) (_ bv140001 36)) (bvadd (_ bv12000000000 36) target_outcome1_t0))) (_ bv1 1) (_ bv0 1))))
 (let (($x2827 (bvuge (_ bv459011 36) (_ bv490849 36))))
 (= (_ bv0 1) (ite $x2827 (_ bv0 1) ?x4357)))))
(assert
 (not (= (_ bv459011 36) chosen)))
(assert
 (let (($x1981 (bvuge (_ bv97632 36) (_ bv490849 36))))
 (let ((?x6923 (ite $x1981 (_ bv0 1) (ite (not (bvuge (bvmul (_ bv97632 36) (_ bv140001 36)) (bvadd (_ bv12000000000 36) target))) (_ bv1 1) (_ bv0 1)))))
 (= (_ bv0 1) ?x6923))))
(assert
 (let ((?x1506 (ite (not (bvuge (bvmul (_ bv97632 36) (_ bv140001 36)) (bvadd (_ bv12000000000 36) target_outcome1_t0))) (_ bv1 1) (_ bv0 1))))
 (let (($x1981 (bvuge (_ bv97632 36) (_ bv490849 36))))
 (= (_ bv0 1) (ite $x1981 (_ bv0 1) ?x1506)))))
(assert
 (not (= (_ bv97632 36) chosen)))
(assert
 (let (($x5063 (bvuge (_ bv79174 36) (_ bv490849 36))))
 (let ((?x12850 (ite $x5063 (_ bv0 1) (ite (not (bvuge (bvmul (_ bv79174 36) (_ bv140001 36)) (bvadd (_ bv12000000000 36) target))) (_ bv1 1) (_ bv0 1)))))
 (= (_ bv1 1) ?x12850))))
(assert
 (let ((?x11086 (ite (not (bvuge (bvmul (_ bv79174 36) (_ bv140001 36)) (bvadd (_ bv12000000000 36) target_outcome0_t0))) (_ bv1 1) (_ bv0 1))))
 (let (($x5063 (bvuge (_ bv79174 36) (_ bv490849 36))))
 (= (_ bv1 1) (ite $x5063 (_ bv0 1) ?x11086)))))
(assert
 (not (= (_ bv79174 36) chosen)))
(assert
 (let (($x4912 (bvuge (_ bv81387 36) (_ bv490849 36))))
 (let ((?x8895 (ite $x4912 (_ bv0 1) (ite (not (bvuge (bvmul (_ bv81387 36) (_ bv140001 36)) (bvadd (_ bv12000000000 36) target))) (_ bv1 1) (_ bv0 1)))))
 (= (_ bv1 1) ?x8895))))
(assert
 (let ((?x5818 (ite (not (bvuge (bvmul (_ bv81387 36) (_ bv140001 36)) (bvadd (_ bv12000000000 36) target_outcome0_t0))) (_ bv1 1) (_ bv0 1))))
 (let (($x4912 (bvuge (_ bv81387 36) (_ bv490849 36))))
 (= (_ bv1 1) (ite $x4912 (_ bv0 1) ?x5818)))))
(assert
 (not (= (_ bv81387 36) chosen)))
(assert
 (let (($x2743 (bvuge (_ bv83703 36) (_ bv490849 36))))
 (let ((?x5482 (ite $x2743 (_ bv0 1) (ite (not (bvuge (bvmul (_ bv83703 36) (_ bv140001 36)) (bvadd (_ bv12000000000 36) target))) (_ bv1 1) (_ bv0 1)))))
 (= (_ bv1 1) ?x5482))))
(assert
 (let ((?x5479 (ite (not (bvuge (bvmul (_ bv83703 36) (_ bv140001 36)) (bvadd (_ bv12000000000 36) target_outcome0_t0))) (_ bv1 1) (_ bv0 1))))
 (let (($x2743 (bvuge (_ bv83703 36) (_ bv490849 36))))
 (= (_ bv1 1) (ite $x2743 (_ bv0 1) ?x5479)))))
(assert
 (not (= (_ bv83703 36) chosen)))
(assert
 (let (($x4096 (bvuge (_ bv93156 36) (_ bv490849 36))))
 (let ((?x15195 (ite $x4096 (_ bv0 1) (ite (not (bvuge (bvmul (_ bv93156 36) (_ bv140001 36)) (bvadd (_ bv12000000000 36) target))) (_ bv1 1) (_ bv0 1)))))
 (= (_ bv1 1) ?x15195))))
(assert
 (let ((?x9052 (ite (not (bvuge (bvmul (_ bv93156 36) (_ bv140001 36)) (bvadd (_ bv12000000000 36) target_outcome0_t0))) (_ bv1 1) (_ bv0 1))))
 (let (($x4096 (bvuge (_ bv93156 36) (_ bv490849 36))))
 (= (_ bv1 1) (ite $x4096 (_ bv0 1) ?x9052)))))
(assert
 (not (= (_ bv93156 36) chosen)))
(assert
 (let (($x18616 (bvuge (_ bv94055 36) (_ bv490849 36))))
 (let ((?x3447 (ite $x18616 (_ bv0 1) (ite (not (bvuge (bvmul (_ bv94055 36) (_ bv140001 36)) (bvadd (_ bv12000000000 36) target))) (_ bv1 1) (_ bv0 1)))))
 (= (_ bv1 1) ?x3447))))
(assert
 (let ((?x4411 (ite (not (bvuge (bvmul (_ bv94055 36) (_ bv140001 36)) (bvadd (_ bv12000000000 36) target_outcome0_t0))) (_ bv1 1) (_ bv0 1))))
 (let (($x18616 (bvuge (_ bv94055 36) (_ bv490849 36))))
 (= (_ bv1 1) (ite $x18616 (_ bv0 1) ?x4411)))))
(assert
 (not (= (_ bv94055 36) chosen)))
(assert
 (let (($x5347 (bvuge (_ bv96009 36) (_ bv490849 36))))
 (let ((?x25550 (ite $x5347 (_ bv0 1) (ite (not (bvuge (bvmul (_ bv96009 36) (_ bv140001 36)) (bvadd (_ bv12000000000 36) target))) (_ bv1 1) (_ bv0 1)))))
 (= (_ bv0 1) ?x25550))))
(assert
 (let ((?x20044 (ite (not (bvuge (bvmul (_ bv96009 36) (_ bv140001 36)) (bvadd (_ bv12000000000 36) target_outcome1_t0))) (_ bv1 1) (_ bv0 1))))
 (let (($x5347 (bvuge (_ bv96009 36) (_ bv490849 36))))
 (= (_ bv0 1) (ite $x5347 (_ bv0 1) ?x20044)))))
(assert
 (not (= (_ bv96009 36) chosen)))
(assert
 (let (($x9358 (bvuge (_ bv95955 36) (_ bv490849 36))))
 (let ((?x10195 (ite $x9358 (_ bv0 1) (ite (not (bvuge (bvmul (_ bv95955 36) (_ bv140001 36)) (bvadd (_ bv12000000000 36) target))) (_ bv1 1) (_ bv0 1)))))
 (= (_ bv0 1) ?x10195))))
(assert
 (let ((?x20361 (ite (not (bvuge (bvmul (_ bv95955 36) (_ bv140001 36)) (bvadd (_ bv12000000000 36) target_outcome1_t0))) (_ bv1 1) (_ bv0 1))))
 (let (($x9358 (bvuge (_ bv95955 36) (_ bv490849 36))))
 (= (_ bv0 1) (ite $x9358 (_ bv0 1) ?x20361)))))
(assert
 (not (= (_ bv95955 36) chosen)))
(assert
 (let (($x14091 (bvuge (_ bv95486 36) (_ bv490849 36))))
 (let ((?x22402 (ite $x14091 (_ bv0 1) (ite (not (bvuge (bvmul (_ bv95486 36) (_ bv140001 36)) (bvadd (_ bv12000000000 36) target))) (_ bv1 1) (_ bv0 1)))))
 (= (_ bv1 1) ?x22402))))
(assert
 (let ((?x26940 (ite (not (bvuge (bvmul (_ bv95486 36) (_ bv140001 36)) (bvadd (_ bv12000000000 36) target_outcome0_t0))) (_ bv1 1) (_ bv0 1))))
 (let (($x14091 (bvuge (_ bv95486 36) (_ bv490849 36))))
 (= (_ bv1 1) (ite $x14091 (_ bv0 1) ?x26940)))))
(assert
 (not (= (_ bv95486 36) chosen)))
(assert
 (let (($x6514 (bvuge (_ bv95623 36) (_ bv490849 36))))
 (let ((?x12815 (ite $x6514 (_ bv0 1) (ite (not (bvuge (bvmul (_ bv95623 36) (_ bv140001 36)) (bvadd (_ bv12000000000 36) target))) (_ bv1 1) (_ bv0 1)))))
 (= (_ bv1 1) ?x12815))))
(assert
 (let ((?x16046 (ite (not (bvuge (bvmul (_ bv95623 36) (_ bv140001 36)) (bvadd (_ bv12000000000 36) target_outcome0_t0))) (_ bv1 1) (_ bv0 1))))
 (let (($x6514 (bvuge (_ bv95623 36) (_ bv490849 36))))
 (= (_ bv1 1) (ite $x6514 (_ bv0 1) ?x16046)))))
(assert
 (not (= (_ bv95623 36) chosen)))
(assert
 (let (($x18296 (bvuge (_ bv95816 36) (_ bv490849 36))))
 (let ((?x29104 (ite $x18296 (_ bv0 1) (ite (not (bvuge (bvmul (_ bv95816 36) (_ bv140001 36)) (bvadd (_ bv12000000000 36) target))) (_ bv1 1) (_ bv0 1)))))
 (= (_ bv0 1) ?x29104))))
(assert
 (let ((?x32760 (ite (not (bvuge (bvmul (_ bv95816 36) (_ bv140001 36)) (bvadd (_ bv12000000000 36) target_outcome1_t0))) (_ bv1 1) (_ bv0 1))))
 (let (($x18296 (bvuge (_ bv95816 36) (_ bv490849 36))))
 (= (_ bv0 1) (ite $x18296 (_ bv0 1) ?x32760)))))
(assert
 (not (= (_ bv95816 36) chosen)))
(assert
 (let (($x28032 (bvuge (_ bv95681 36) (_ bv490849 36))))
 (let ((?x26243 (ite $x28032 (_ bv0 1) (ite (not (bvuge (bvmul (_ bv95681 36) (_ bv140001 36)) (bvadd (_ bv12000000000 36) target))) (_ bv1 1) (_ bv0 1)))))
 (= (_ bv0 1) ?x26243))))
(assert
 (let ((?x3657 (ite (not (bvuge (bvmul (_ bv95681 36) (_ bv140001 36)) (bvadd (_ bv12000000000 36) target_outcome1_t0))) (_ bv1 1) (_ bv0 1))))
 (let (($x28032 (bvuge (_ bv95681 36) (_ bv490849 36))))
 (= (_ bv0 1) (ite $x28032 (_ bv0 1) ?x3657)))))
(assert
 (not (= (_ bv95681 36) chosen)))
(assert
 (let (($x21056 (bvuge (_ bv95655 36) (_ bv490849 36))))
 (let ((?x28490 (ite $x21056 (_ bv0 1) (ite (not (bvuge (bvmul (_ bv95655 36) (_ bv140001 36)) (bvadd (_ bv12000000000 36) target))) (_ bv1 1) (_ bv0 1)))))
 (= (_ bv1 1) ?x28490))))
(assert
 (let ((?x15953 (ite (not (bvuge (bvmul (_ bv95655 36) (_ bv140001 36)) (bvadd (_ bv12000000000 36) target_outcome0_t0))) (_ bv1 1) (_ bv0 1))))
 (let (($x21056 (bvuge (_ bv95655 36) (_ bv490849 36))))
 (= (_ bv1 1) (ite $x21056 (_ bv0 1) ?x15953)))))
(assert
 (not (= (_ bv95655 36) chosen)))
(assert
 (let (($x28788 (bvuge (_ bv95678 36) (_ bv490849 36))))
 (let ((?x34869 (ite $x28788 (_ bv0 1) (ite (not (bvuge (bvmul (_ bv95678 36) (_ bv140001 36)) (bvadd (_ bv12000000000 36) target))) (_ bv1 1) (_ bv0 1)))))
 (= (_ bv0 1) ?x34869))))
(assert
 (let ((?x35094 (ite (not (bvuge (bvmul (_ bv95678 36) (_ bv140001 36)) (bvadd (_ bv12000000000 36) target_outcome1_t0))) (_ bv1 1) (_ bv0 1))))
 (let (($x28788 (bvuge (_ bv95678 36) (_ bv490849 36))))
 (= (_ bv0 1) (ite $x28788 (_ bv0 1) ?x35094)))))
(assert
 (not (= (_ bv95678 36) chosen)))
(assert
 (let (($x11493 (bvuge (_ bv95675 36) (_ bv490849 36))))
 (let ((?x13338 (ite $x11493 (_ bv0 1) (ite (not (bvuge (bvmul (_ bv95675 36) (_ bv140001 36)) (bvadd (_ bv12000000000 36) target))) (_ bv1 1) (_ bv0 1)))))
 (= (_ bv0 1) ?x13338))))
(assert
 (let ((?x29272 (ite (not (bvuge (bvmul (_ bv95675 36) (_ bv140001 36)) (bvadd (_ bv12000000000 36) target_outcome1_t0))) (_ bv1 1) (_ bv0 1))))
 (let (($x11493 (bvuge (_ bv95675 36) (_ bv490849 36))))
 (= (_ bv0 1) (ite $x11493 (_ bv0 1) ?x29272)))))
(assert
 (not (= (_ bv95675 36) chosen)))
(assert
 (let (($x1875 (bvuge (_ bv95656 36) (_ bv490849 36))))
 (let ((?x4497 (ite $x1875 (_ bv0 1) (ite (not (bvuge (bvmul (_ bv95656 36) (_ bv140001 36)) (bvadd (_ bv12000000000 36) target))) (_ bv1 1) (_ bv0 1)))))
 (= (_ bv1 1) ?x4497))))
(assert
 (let ((?x33237 (ite (not (bvuge (bvmul (_ bv95656 36) (_ bv140001 36)) (bvadd (_ bv12000000000 36) target_outcome0_t0))) (_ bv1 1) (_ bv0 1))))
 (let (($x1875 (bvuge (_ bv95656 36) (_ bv490849 36))))
 (= (_ bv1 1) (ite $x1875 (_ bv0 1) ?x33237)))))
(assert
 (not (= (_ bv95656 36) chosen)))
(assert
 (let (($x27416 (bvuge (_ bv95669 36) (_ bv490849 36))))
 (let ((?x33763 (ite $x27416 (_ bv0 1) (ite (not (bvuge (bvmul (_ bv95669 36) (_ bv140001 36)) (bvadd (_ bv12000000000 36) target))) (_ bv1 1) (_ bv0 1)))))
 (= (_ bv0 1) ?x33763))))
(assert
 (let ((?x23048 (ite (not (bvuge (bvmul (_ bv95669 36) (_ bv140001 36)) (bvadd (_ bv12000000000 36) target_outcome1_t0))) (_ bv1 1) (_ bv0 1))))
 (let (($x27416 (bvuge (_ bv95669 36) (_ bv490849 36))))
 (= (_ bv0 1) (ite $x27416 (_ bv0 1) ?x23048)))))
(assert
 (not (= (_ bv95669 36) chosen)))
(assert
 (let (($x34320 (bvuge (_ bv95665 36) (_ bv490849 36))))
 (let ((?x27206 (ite $x34320 (_ bv0 1) (ite (not (bvuge (bvmul (_ bv95665 36) (_ bv140001 36)) (bvadd (_ bv12000000000 36) target))) (_ bv1 1) (_ bv0 1)))))
 (= (_ bv0 1) ?x27206))))
(assert
 (let ((?x27817 (ite (not (bvuge (bvmul (_ bv95665 36) (_ bv140001 36)) (bvadd (_ bv12000000000 36) target_outcome1_t0))) (_ bv1 1) (_ bv0 1))))
 (let (($x34320 (bvuge (_ bv95665 36) (_ bv490849 36))))
 (= (_ bv0 1) (ite $x34320 (_ bv0 1) ?x27817)))))
(assert
 (not (= (_ bv95665 36) chosen)))
(assert
 (let (($x9563 (bvuge (_ bv95660 36) (_ bv490849 36))))
 (let ((?x36395 (ite $x9563 (_ bv0 1) (ite (not (bvuge (bvmul (_ bv95660 36) (_ bv140001 36)) (bvadd (_ bv12000000000 36) target))) (_ bv1 1) (_ bv0 1)))))
 (= (_ bv0 1) ?x36395))))
(assert
 (let ((?x687 (ite (not (bvuge (bvmul (_ bv95660 36) (_ bv140001 36)) (bvadd (_ bv12000000000 36) target_outcome1_t0))) (_ bv1 1) (_ bv0 1))))
 (let (($x9563 (bvuge (_ bv95660 36) (_ bv490849 36))))
 (= (_ bv0 1) (ite $x9563 (_ bv0 1) ?x687)))))
(assert
 (not (= (_ bv95660 36) chosen)))
(assert
 (let (($x2950 (bvuge (_ bv95658 36) (_ bv490849 36))))
 (let ((?x31327 (ite $x2950 (_ bv0 1) (ite (not (bvuge (bvmul (_ bv95658 36) (_ bv140001 36)) (bvadd (_ bv12000000000 36) target))) (_ bv1 1) (_ bv0 1)))))
 (= (_ bv1 1) ?x31327))))
(assert
 (let ((?x36485 (ite (not (bvuge (bvmul (_ bv95658 36) (_ bv140001 36)) (bvadd (_ bv12000000000 36) target_outcome0_t0))) (_ bv1 1) (_ bv0 1))))
 (let (($x2950 (bvuge (_ bv95658 36) (_ bv490849 36))))
 (= (_ bv1 1) (ite $x2950 (_ bv0 1) ?x36485)))))
(assert
 (not (= (_ bv95658 36) chosen)))
(assert
 (= chosen chosen_outcome0))
(assert
 (= chosen chosen_outcome1))
(assert
 (= (= (_ bv1 1) ((_ extract 0 0) target_outcome0_t0)) (= target_bit_0_0_bool true)))
(assert
 (= (= (_ bv1 1) ((_ extract 1 1) target_outcome0_t0)) (= target_bit_0_1_bool true)))
(assert
 (= (= (_ bv1 1) ((_ extract 2 2) target_outcome0_t0)) (= target_bit_0_2_bool true)))
(assert
 (= (= (_ bv1 1) ((_ extract 3 3) target_outcome0_t0)) (= target_bit_0_3_bool true)))
(assert
 (= (= (_ bv1 1) ((_ extract 4 4) target_outcome0_t0)) (= target_bit_0_4_bool true)))
(assert
 (= (= (_ bv1 1) ((_ extract 5 5) target_outcome0_t0)) (= target_bit_0_5_bool true)))
(assert
 (= (= (_ bv1 1) ((_ extract 6 6) target_outcome0_t0)) (= target_bit_0_6_bool true)))
(assert
 (= (= (_ bv1 1) ((_ extract 7 7) target_outcome0_t0)) (= target_bit_0_7_bool true)))
(assert
 (= (= (_ bv1 1) ((_ extract 8 8) target_outcome0_t0)) (= target_bit_0_8_bool true)))
(assert
 (= (= (_ bv1 1) ((_ extract 9 9) target_outcome0_t0)) (= target_bit_0_9_bool true)))
(assert
 (= (= (_ bv1 1) ((_ extract 10 10) target_outcome0_t0)) (= target_bit_0_10_bool true)))
(assert
 (= (= (_ bv1 1) ((_ extract 11 11) target_outcome0_t0)) (= target_bit_0_11_bool true)))
(assert
 (= (= (_ bv1 1) ((_ extract 12 12) target_outcome0_t0)) (= target_bit_0_12_bool true)))
(assert
 (= (= (_ bv1 1) ((_ extract 13 13) target_outcome0_t0)) (= target_bit_0_13_bool true)))
(assert
 (= (= (_ bv1 1) ((_ extract 14 14) target_outcome0_t0)) (= target_bit_0_14_bool true)))
(assert
 (= (= (_ bv1 1) ((_ extract 15 15) target_outcome0_t0)) (= target_bit_0_15_bool true)))
(assert
 (= (= (_ bv1 1) ((_ extract 16 16) target_outcome0_t0)) (= target_bit_0_16_bool true)))
(assert
 (= (= (_ bv1 1) ((_ extract 17 17) target_outcome0_t0)) (= target_bit_0_17_bool true)))
(assert
 (= (= (_ bv1 1) ((_ extract 18 18) target_outcome0_t0)) (= target_bit_0_18_bool true)))
(assert
 (= (= (_ bv1 1) ((_ extract 0 0) target_outcome1_t0)) (= target_bit_1_0_bool true)))
(assert
 (= (= (_ bv1 1) ((_ extract 1 1) target_outcome1_t0)) (= target_bit_1_1_bool true)))
(assert
 (= (= (_ bv1 1) ((_ extract 2 2) target_outcome1_t0)) (= target_bit_1_2_bool true)))
(assert
 (= (= (_ bv1 1) ((_ extract 3 3) target_outcome1_t0)) (= target_bit_1_3_bool true)))
(assert
 (= (= (_ bv1 1) ((_ extract 4 4) target_outcome1_t0)) (= target_bit_1_4_bool true)))
(assert
 (= (= (_ bv1 1) ((_ extract 5 5) target_outcome1_t0)) (= target_bit_1_5_bool true)))
(assert
 (= (= (_ bv1 1) ((_ extract 6 6) target_outcome1_t0)) (= target_bit_1_6_bool true)))
(assert
 (= (= (_ bv1 1) ((_ extract 7 7) target_outcome1_t0)) (= target_bit_1_7_bool true)))
(assert
 (= (= (_ bv1 1) ((_ extract 8 8) target_outcome1_t0)) (= target_bit_1_8_bool true)))
(assert
 (= (= (_ bv1 1) ((_ extract 9 9) target_outcome1_t0)) (= target_bit_1_9_bool true)))
(assert
 (= (= (_ bv1 1) ((_ extract 10 10) target_outcome1_t0)) (= target_bit_1_10_bool true)))
(assert
 (= (= (_ bv1 1) ((_ extract 11 11) target_outcome1_t0)) (= target_bit_1_11_bool true)))
(assert
 (= (= (_ bv1 1) ((_ extract 12 12) target_outcome1_t0)) (= target_bit_1_12_bool true)))
(assert
 (= (= (_ bv1 1) ((_ extract 13 13) target_outcome1_t0)) (= target_bit_1_13_bool true)))
(assert
 (= (= (_ bv1 1) ((_ extract 14 14) target_outcome1_t0)) (= target_bit_1_14_bool true)))
(assert
 (= (= (_ bv1 1) ((_ extract 15 15) target_outcome1_t0)) (= target_bit_1_15_bool true)))
(assert
 (= (= (_ bv1 1) ((_ extract 16 16) target_outcome1_t0)) (= target_bit_1_16_bool true)))
(assert
 (= (= (_ bv1 1) ((_ extract 17 17) target_outcome1_t0)) (= target_bit_1_17_bool true)))
(assert
 (= (= (_ bv1 1) ((_ extract 18 18) target_outcome1_t0)) (= target_bit_1_18_bool true)))
(check-sat)
(exit)